!File created by the GAMESS Input Deck Generator Plugin for Avogadro
 $BASIS GBASIS=STO NGAUSS=3 $END
 $CONTRL SCFTYP=RHF RUNTYP=SADPOINT $END
 $STATPT hssend=.t. OPTTOL=0.0005 NSTEP=50 $END
 $STATPT HESS=calc ihrep=5 $END
 $FORCE nvib=2 $END
 $ZMAT DLC=.t. auto=.t. nonvdw(1)=1,6,3,4,4,5,5,6,1,2,2,3 $END
!$ZMAT IFZMAT(1)=1,1,6,1,3,4 fvalue(1)=2.00,2.00 $END

 $DATA 
Title
C1
C     6.0     4.46479654    -1.76523983    -2.85273814
C     6.0     3.27537727    -1.80556810    -2.11621284
C     6.0     3.04669881    -0.85111409    -1.11827826
C     6.0     4.51476622    -1.08808720     0.21911538
C     6.0     5.30815220    -2.12350011    -0.28981885
C     6.0     5.94708395    -1.88760400    -1.51563287
C     6.0     6.54120588    -0.51214987    -1.67586124
C     6.0     6.17070436     0.49823070    -0.91541708
C     6.0     5.10912466     0.32529587     0.14639284
O     8.0     4.74689722     1.23254585     0.88359034
H     1.0     4.66502333    -2.58646750    -3.53307009
H     1.0     4.77826071    -0.80747336    -3.24971128
H     1.0     2.80404615    -2.77343488    -1.99037647
H     1.0     3.26636291     0.18286413    -1.35642862
H     1.0     2.15936160    -0.95849067    -0.50367033
H     1.0     3.96371937    -1.27382946     1.13651502
H     1.0     5.09565306    -3.14394259     0.00477275
H     1.0     6.54566050    -2.68798900    -1.93964374
H     1.0     7.29342556    -0.38835442    -2.44730735
H     1.0     6.61577559     1.48049927    -1.00460732
 $END
