!File created by the GAMESS Input Deck Generator Plugin for Avogadro
 $BASIS GBASIS=STO NGAUSS=3 $END
 $CONTRL SCFTYP=RHF RUNTYP=OPTIMIZE NZVAR=1 mult=1  ICHARG=0 $END
 $STATPT hssend=.t. OPTTOL=0.0005 NSTEP=50 $END
 $STATPT HESS=calc ihrep=5 $END
 $FORCE nvib=2 $END
 $ZMAT DLC=.t. auto=.t. nonvdw(1)=1,6,3,4 $END
 $ZMAT IFZMAT(1)=1,1,6,1,3,4 fvalue(1)=2.00,2.00 $END

 $DATA 
Title
C1
C     6.0     4.42106    -1.68332    -2.83796
C     6.0     3.28979    -1.81003    -2.09495
C     6.0     3.11190    -0.95633    -0.84547
C     6.0     4.36329    -1.03178     0.08707
C     6.0     5.29083    -2.13421    -0.40120
C     6.0     5.95302    -1.86463    -1.56096
C     6.0     6.65428    -0.55931    -1.57554
C     6.0     6.27288     0.47419    -0.81168
C     6.0     5.09005     0.31454     0.07556
O     8.0     4.70077     1.27857     0.73399
H     1.0     4.59642    -2.40702    -3.63753
H     1.0     4.76400    -0.66055    -3.03061
H     1.0     2.71240    -2.73066    -2.14841
H     1.0     2.86060     0.07266    -1.12869
H     1.0     2.24826    -1.34873    -0.29408
H     1.0     4.07231    -1.23692     1.12371
H     1.0     5.06061    -3.15930    -0.12471
H     1.0     6.48167    -2.68100    -2.06492
H     1.0     7.52104    -0.47596    -2.22552
H     1.0     6.77821     1.43031    -0.80407
 $END
